  6	47
 18
  0	 37	 14	 84	 38	 18	 61	 85	  3	 50	 65	  4	 36	 83	  9	 56	 51	 95	
 16
  0	 20	 24	 71	 32	 67	 28	 40	 31	 75	 79	 30	 87	 78	 77	 95	
 14
  0	 39	 29	 76	 42	 86	 46	 93	 89	 25	 72	 16	 63	 95	
 26
  0	 22	 11	 69	  5	 58	 23	 17	 52	 47	 45	 19	 94	 92	 44	 70	 66	 26	 13	 91	 64	  1	 48	 60	 73	 95	
 18
  0	 27	  6	 43	 74	 53	 90	 12	 15	 62	 21	 68	 41	 88	 59	  2	 49	 95	
 14
  0	 33	  8	 80	 55	 34	 81	 10	  7	 35	 54	 57	 82	 95	
